
(set-logic HORN)
(declare-fun zero_121 () Int)
(declare-fun succ_118 (Int) Int)
(declare-datatypes ((Bool_276 0)) (((false_276) (true_276))))
(declare-fun diseqBool_131 (Bool_276 Bool_276) Bool)
(declare-fun isfalse_131 (Bool_276) Bool)
(declare-fun istrue_131 (Bool_276) Bool)
(assert (isfalse_131 false_276))
(assert (istrue_131 true_276))
(assert (diseqBool_131 false_276 true_276))
(assert (diseqBool_131 true_276 false_276))
(declare-fun and_276 (Bool_276 Bool_276 Bool_276) Bool)
(declare-fun or_282 (Bool_276 Bool_276 Bool_276) Bool)
(declare-fun hence_276 (Bool_276 Bool_276 Bool_276) Bool)
(declare-fun not_280 (Bool_276 Bool_276) Bool)
(assert (and_276 false_276 false_276 false_276))
(assert (and_276 false_276 true_276 false_276))
(assert (and_276 false_276 false_276 true_276))
(assert (and_276 true_276 true_276 true_276))
(assert (or_282 false_276 false_276 false_276))
(assert (or_282 true_276 true_276 false_276))
(assert (or_282 true_276 false_276 true_276))
(assert (or_282 true_276 true_276 true_276))
(assert (hence_276 true_276 false_276 false_276))
(assert (hence_276 false_276 true_276 false_276))
(assert (hence_276 true_276 false_276 true_276))
(assert (hence_276 true_276 true_276 true_276))
(assert (not_280 true_276 false_276))
(assert (not_280 false_276 true_276))
(declare-fun diseqInt (Int Int) Bool)
(declare-fun p_336 (Int Int) Bool)
(declare-fun iszero_118 (Int) Bool)
(declare-fun issucc_118 (Int) Bool)
(assert (forall ((x_50660 Int))
	(p_336 x_50660 (succ_118 x_50660))))
(assert (iszero_118 zero_121))
(assert (forall ((x_50662 Int))
	(issucc_118 (succ_118 x_50662))))
(assert (forall ((x_50663 Int))
	(diseqInt zero_121 (succ_118 x_50663))))
(assert (forall ((x_50664 Int))
	(diseqInt (succ_118 x_50664) zero_121)))
(assert (forall ((x_50665 Int) (x_50666 Int))
	(=> (diseqInt x_50665 x_50666) (diseqInt (succ_118 x_50665) (succ_118 x_50666)))))
(declare-fun leq_46 (Bool_276 Int Int) Bool)
(assert (forall ((x_50649 Bool_276) (x_50647 Int) (z_1663 Int))
	(=> (leq_46 x_50649 z_1663 x_50647) (leq_46 x_50649 (succ_118 z_1663) (succ_118 x_50647)))))
(assert (forall ((z_1663 Int))
	(leq_46 false_276 (succ_118 z_1663) zero_121)))
(assert (forall ((y_1865 Int))
	(leq_46 true_276 zero_121 y_1865)))
(assert (forall ((x_50648 Int) (y_1866 Int) (z_1664 Int))
	(=> (and true (leq_46 true_276 x_50648 y_1866) (leq_46 true_276 y_1866 z_1664) (leq_46 false_276 x_50648 z_1664)) false)))
(check-sat)
